% From JaCoP's nonogramRepository/data108.nin
 rows = 25;
 row_rule_len = 3;
 row_rules = array2d(1..rows, 1..row_rule_len, 
[
 0,0,4,
 0,4,2,
 0,3,1,
 0,5,2,
 0,11,2,
 0,0,15,
 0,4,11,
 0,4,14,
 3,3,7,
 3,3,7,
 2,4,7,
 0,2,20,
 0,2,20,
 0,1,6,
 1,6,8,
 1,6,8,
 0,8,8,
 0,0,22,
 0,1,19,
 0,1,19,
 0,1,17,
 0,1,15,
 1,1,11,
 1,1,5,
 0,0,3
]);

 cols = 25;
 col_rule_len = 4;
 col_rules = array2d(1..cols, 1..col_rule_len, 
[
 0,0,0,4,
 0,5,3,1,
 0,4,2,1,
 0,4,7,1,
 0,4,10,1,
 0,0,4,13,
 0,0,3,13,
 0,0,3,15,
 0,0,2,16,
 2,2,2,7,
 0,5,2,7,
 0,5,2,7,
 0,5,2,7,
 0,5,2,7,
 0,5,2,7,
 1,5,2,7,
 0,1,9,9,
 0,2,9,9,
 0,1,8,8,
 0,1,8,8,
 0,2,7,7,
 0,1,6,6,
 1,1,4,4,
 2,2,2,2,
 0,0,0,3
]);

